lbl,CUST NO.,READY TIME,XCOORD.,YCOORD.,DEMAND,DUE DATE,SERVICE TIME
27,46,70,157,142,13,80,10
27,187,73,152,122,25,83,10
27,251,87,141,132,18,97,10
27,159,175,151,132,6,185,10
27,71,368,158,132,12,378,10
27,235,393,159,129,10,403,10
27,382,395,143,116,18,405,10
27,113,542,141,146,15,552,10
27,232,641,131,136,18,651,10
